NAME          
ROWS
 N  OBJ
 L  c1
 L  c2
 L  c3
 L  c4
 L  c5
COLUMNS
    MARKER    'MARKER'                 'INTORG'
    x[1]      c1        88
    x[1]      c2        107
    x[1]      c3        743
    x[1]      c4        810
    x[1]      c5        520
    x[1]      OBJ       -743
    x[2]      c1        561
    x[2]      c2        588
    x[2]      c3        254
    x[2]      c4        637
    x[2]      c5        640
    x[2]      OBJ       -919
    x[3]      c1        677
    x[3]      c2        241
    x[3]      c3        731
    x[3]      c4        922
    x[3]      c5        821
    x[3]      OBJ       -735
    x[4]      c1        652
    x[4]      c2        340
    x[4]      c3        543
    x[4]      c4        143
    x[4]      c5        419
    x[4]      OBJ       -876
    x[5]      c1        38
    x[5]      c2        514
    x[5]      c3        60
    x[5]      c4        5
    x[5]      c5        834
    x[5]      OBJ       -977
    x[6]      c1        664
    x[6]      c2        42
    x[6]      c3        829
    x[6]      c4        869
    x[6]      c5        14
    x[6]      OBJ       -305
    x[7]      c1        837
    x[7]      c2        756
    x[7]      c3        921
    x[7]      c4        549
    x[7]      c5        840
    x[7]      OBJ       -743
    x[8]      c1        664
    x[8]      c2        298
    x[8]      c3        520
    x[8]      c4        385
    x[8]      c5        280
    x[8]      OBJ       -848
    x[9]      c1        246
    x[9]      c2        862
    x[9]      c3        770
    x[9]      c4        886
    x[9]      c5        87
    x[9]      OBJ       -815
    x[10]     c1        837
    x[10]     c2        704
    x[10]     c3        871
    x[10]     c4        95
    x[10]     c5        920
    x[10]     OBJ       -227
    x[11]     c1        992
    x[11]     c2        743
    x[11]     c3        889
    x[11]     c4        362
    x[11]     c5        306
    x[11]     OBJ       -660
    x[12]     c1        717
    x[12]     c2        909
    x[12]     c3        10
    x[12]     c4        502
    x[12]     c5        697
    x[12]     OBJ       -939
    x[13]     c1        628
    x[13]     c2        820
    x[13]     c3        118
    x[13]     c4        245
    x[13]     c5        651
    x[13]     OBJ       -360
    x[14]     c1        135
    x[14]     c2        406
    x[14]     c3        520
    x[14]     c4        815
    x[14]     c5        965
    x[14]     OBJ       -408
    x[15]     c1        343
    x[15]     c2        813
    x[15]     c3        446
    x[15]     c4        970
    x[15]     c5        791
    x[15]     OBJ       -5
    x[16]     c1        164
    x[16]     c2        487
    x[16]     c3        465
    x[16]     c4        794
    x[16]     c5        655
    x[16]     OBJ       -210
    x[17]     c1        432
    x[17]     c2        541
    x[17]     c3        350
    x[17]     c4        964
    x[17]     c5        27
    x[17]     OBJ       -414
    x[18]     c1        284
    x[18]     c2        37
    x[18]     c3        318
    x[18]     c4        699
    x[18]     c5        324
    x[18]     OBJ       -622
    x[19]     c1        657
    x[19]     c2        259
    x[19]     c3        181
    x[19]     c4        659
    x[19]     c5        844
    x[19]     OBJ       -636
    x[20]     c1        266
    x[20]     c2        361
    x[20]     c3        509
    x[20]     c4        334
    x[20]     c5        5
    x[20]     OBJ       -5
    x[21]     c1        649
    x[21]     c2        576
    x[21]     c3        898
    x[21]     c4        734
    x[21]     c5        392
    x[21]     OBJ       -233
    x[22]     c1        491
    x[22]     c2        627
    x[22]     c3        394
    x[22]     c4        292
    x[22]     c5        194
    x[22]     OBJ       -922
    x[23]     c1        745
    x[23]     c2        193
    x[23]     c3        302
    x[23]     c4        793
    x[23]     c5        477
    x[23]     OBJ       -969
    x[24]     c1        139
    x[24]     c2        896
    x[24]     c3        515
    x[24]     c4        309
    x[24]     c5        699
    x[24]     OBJ       -512
    x[25]     c1        592
    x[25]     c2        405
    x[25]     c3        506
    x[25]     c4        875
    x[25]     c5        206
    x[25]     OBJ       -742
    x[26]     c1        407
    x[26]     c2        918
    x[26]     c3        175
    x[26]     c4        890
    x[26]     c5        109
    x[26]     OBJ       -30
    x[27]     c1        190
    x[27]     c2        514
    x[27]     c3        440
    x[27]     c4        555
    x[27]     c5        705
    x[27]     OBJ       -116
    x[28]     c1        841
    x[28]     c2        359
    x[28]     c3        499
    x[28]     c4        761
    x[28]     c5        8
    x[28]     OBJ       -29
    x[29]     c1        169
    x[29]     c2        862
    x[29]     c3        103
    x[29]     c4        842
    x[29]     c5        844
    x[29]     OBJ       -825
    x[30]     c1        860
    x[30]     c2        831
    x[30]     c3        98
    x[30]     c4        204
    x[30]     c5        275
    x[30]     OBJ       -921
RHS
    rhs       c1        7482
    rhs       c2        8004
    rhs       c3        6989
    rhs       c4        8950
    rhs       c5        7274
RANGES
BOUNDS
 BV bounds    x[1]
 BV bounds    x[2]
 BV bounds    x[3]
 BV bounds    x[4]
 BV bounds    x[5]
 BV bounds    x[6]
 BV bounds    x[7]
 BV bounds    x[8]
 BV bounds    x[9]
 BV bounds    x[10]
 BV bounds    x[11]
 BV bounds    x[12]
 BV bounds    x[13]
 BV bounds    x[14]
 BV bounds    x[15]
 BV bounds    x[16]
 BV bounds    x[17]
 BV bounds    x[18]
 BV bounds    x[19]
 BV bounds    x[20]
 BV bounds    x[21]
 BV bounds    x[22]
 BV bounds    x[23]
 BV bounds    x[24]
 BV bounds    x[25]
 BV bounds    x[26]
 BV bounds    x[27]
 BV bounds    x[28]
 BV bounds    x[29]
 BV bounds    x[30]
ENDATA
